p td 70 105
35 58
35 50
35 0
58 68
58 23
15 47
15 16
15 21
47 56
47 46
56 27
56 13
38 40
38 3
38 66
40 17
40 0
28 48
28 24
28 39
48 60
48 12
27 25
27 51
43 63
43 14
43 51
63 19
63 21
11 67
11 64
11 32
67 24
67 44
30 42
30 0
30 8
42 18
42 14
61 66
61 52
61 7
66 20
14 54
1 54
1 53
1 57
54 37
2 53
2 20
2 26
53 55
8 21
8 51
33 34
33 25
33 4
34 6
34 62
17 52
17 44
52 10
7 57
7 50
57 29
25 36
37 60
37 32
16 29
16 45
39 55
39 49
55 59
41 64
41 59
41 19
64 20
46 65
46 12
65 32
65 26
10 22
10 45
60 9
36 69
36 31
69 31
69 62
49 62
49 31
29 5
12 24
18 9
18 13
23 68
23 9
68 50
3 44
3 4
45 59
4 6
6 22
19 22
5 13
5 26
